benchmarks/bfuzz0/10699197910971925831952260932187730519.smt2
(set-logic QF_FP)
(declare-const x0 (_ FloatingPoint 8 24))
(declare-const x1 (_ FloatingPoint 8 24))
(declare-const x2 (_ FloatingPoint 8 24))
(declare-const x3 (_ FloatingPoint 8 24))
(declare-const x4 (_ FloatingPoint 8 24))
(declare-const x5 (_ FloatingPoint 8 24))
(declare-const x6 (_ FloatingPoint 8 24))
(declare-const x7 (_ FloatingPoint 8 24))
(assert (fp.lt (fp.sub RNE x3 x6) (fp.div RNE x1 x6)))
(assert (fp.lt (fp.neg x3) (fp.sub RNE x1 x7)))
(assert (fp.gt (fp.neg x6) (fp.sub RNE x0 x6)))
(assert (fp.eq (fp.add RNE x3 x0) (fp.mul RNE x4 x3)))
(assert (fp.geq (fp.div RNE x6 x4) (fp.add RNE x1 x0)))
(assert (fp.gt (fp.div RNE x5 x0) (fp.add RNE x7 x1)))
(assert (fp.eq (fp.neg x6) (fp.mul RNE x0 x2)))
(assert (fp.leq (fp.sub RNE x5 x5) (fp.sub RNE x5 x3)))
(assert (fp.eq (fp.neg x2) (fp.add RNE x5 x6)))
(assert (fp.lt (fp.div RNE x3 x5) (fp.sub RNE x6 x0)))
(assert (fp.gt (fp.neg x5) (fp.neg x2)))
(assert (fp.eq (fp.add RNE x6 x7) (fp.sub RNE x6 x1)))
(check-sat)
