db/data/10699197910971925831952260932187730519.z3.out
sat
-------------------
176.454159598
